100
1000
199
199
198
198
197
197
197
195
194
194
194
194
194
192
192
191
190
189
189
188
187
186
186
185
185
184
184
183
182
182
182
181
180
180
180
180
180
180
179
178
178
178
176
175
175
174
173
173
173
171
171
170
170
170
170
168
168
168
167
167
167
167
166
165
165
165
165
163
163
163
162
162
162
162
162
161
161
160
160
159
158
157
157
157
156
156
156
156
154
154
152
152
152
151
151
150
150
150
150
150
